13, 14, 15, 16, 19, 18, 10, 9, 8, 4, 44, 42, 60, 123, 109, 126, 138, 161, 127, 128, 129, 164, 134, 135, 163, 158, 213, 166, 154, 156, 162, 139, 142, 201, 160, 159, 143, 144, 215, 165, 167, 214, 212, 122, 184, 182, 180, 171, 175, 118, 117, 47, 190, 199, 56, 70, 73, 100, 97, 209, 83, 210, 87, 90, 91, 89, 103, 101, 102, 93, 94, 221, 82, 95, 80, 79, 29, 77, 217, 96, 99, 78, 219, 75, 74, 71, 65, 64, 114, 119, 187, 115, 113, 223, 112, 110, 111, 124, 125, 168, 150, 153, 157, 141, 137, 136, 183, 140, 108, 54, 69, 220, 92, 222, 132, 211, 131, 86, 85, 84, 130, 88, 105, 107, 106, 67, 104, 68, 66, 63, 62, 116, 61, 58, 57, 59, 2, 207, 51, 55, 52, 53, 72, 76, 216, 31, 206, 36, 33, 13
25, 26, 28, 29, 30, 32, 33, 34, 35, 202, 204, 206
87, 88, 89, 90, 91, 103, 105
77, 78, 79, 80, 81, 95, 96, 97, 98, 217, 219
49, 50, 51, 133, 189, 190, 191, 192, 196, 199, 205, 207, 224, 225
62, 63, 64, 65, 110, 111, 112, 113, 114, 115, 121
27, 117, 187, 188
82, 84, 85, 86, 130, 131, 210, 211, 222
29, 30, 31, 32, 33, 35, 77, 202, 206, 216, 217, 219
10, 11, 12, 13, 14, 16, 18, 23, 24, 36, 37, 38, 39
28, 77, 78, 79, 80, 81, 97
82, 83, 90, 91, 92, 93, 94, 95, 96, 99, 209, 221
142, 143, 144, 145, 157, 201
99, 100, 101, 102, 103, 104
2, 27, 47, 49, 50, 51, 52, 57, 58, 59, 133, 189, 190, 207, 225
60, 61, 62, 63, 64, 65, 66, 67, 112
64, 110, 111, 112, 113, 114, 115, 116, 118, 119, 120, 121, 175, 223
26, 28, 29, 30, 31, 32, 33, 34, 35, 77, 78, 202, 204, 206, 217, 219
141, 142, 143, 144, 201
54, 68, 69, 70, 71, 72, 73, 74, 100, 101, 102
44, 45, 46, 48, 192, 193, 194, 196, 218, 224
128, 129, 130, 131, 132, 134, 164, 211, 215, 222
44, 45, 46, 48, 192, 193, 194, 195, 196, 218
67, 68, 69, 88, 89, 101, 102, 103, 104, 105, 106, 107, 108, 220
127, 128, 129, 130, 131, 132, 211, 215, 222
2, 49, 50, 51, 52, 53, 54, 55, 56, 57, 58, 59, 207
12, 13, 23, 24, 25, 36, 37, 38, 208
135, 136, 137, 138, 139, 140, 163, 183
9, 10, 11, 12, 18, 37, 38, 39, 40
171, 172, 173, 174, 176, 177, 178, 179, 180, 181, 182
26, 28, 29, 30, 33, 34, 35, 77, 78, 79, 202, 204, 206
145, 146, 147, 148, 149, 150, 151, 152, 153, 154, 155
122, 123, 124, 168, 169, 170, 171, 172, 173, 181, 182
110, 122, 123, 124, 125, 168, 169, 170
127, 128, 129, 134, 164, 165, 166, 167, 213, 215
66, 67, 68, 69, 70, 71, 72, 73, 102, 104, 220
7, 8, 9, 10, 39, 40, 41, 42
24, 25, 26, 33, 34, 36, 208
136, 137, 138, 139, 140, 141, 142, 159, 161, 201
146, 147, 148, 149, 150, 151, 152, 153, 154, 155, 156, 167, 214
120, 122, 175, 182, 184, 185
63, 64, 65, 66, 67, 68, 106, 107, 108, 109, 110
62, 111, 112, 113, 114, 115, 116, 117, 118, 119, 121, 175, 185, 186, 187, 223
16, 17, 18, 19, 20, 21, 22, 203
27, 60, 115, 116, 117, 118, 186, 187, 188, 223
145, 146, 147, 148, 149, 150, 151, 152, 153, 154, 155, 156, 157
52, 53, 54, 55, 56
53, 54, 70, 71, 72, 73, 74, 75, 76, 100
80, 81, 82, 83, 91, 92, 93, 94, 95, 96, 209, 221
2, 47, 49, 50, 51, 52, 57, 133, 190, 191, 199, 205, 207, 224, 225
60, 61, 62, 63, 64, 66, 112, 113, 114, 115, 116, 223
172, 173, 174, 176, 177, 178, 179, 180, 181, 182
68, 69, 70, 71, 72, 73, 99, 100, 101, 102, 103, 104, 220
52, 53, 54, 55, 56, 70
84, 85, 86, 87, 88, 89, 90, 91, 92, 130, 210, 211, 222
129, 132, 134, 135, 164, 165, 213, 215
143, 144, 145, 147, 155, 156, 157, 201
134, 135, 158, 162, 164, 165, 166, 183, 213, 215
124, 125, 150, 168, 169, 170, 212, 214
45, 48, 191, 192, 193, 196, 199, 218, 224
2, 27, 47, 59, 188, 189, 190, 205, 207, 225
6, 7, 8, 9, 40, 41, 42, 43, 44
27, 47, 133, 189, 190, 191, 192, 199, 205, 224, 225
62, 63, 64, 111, 112, 113, 114, 115, 116, 117, 118, 223
134, 135, 136, 137, 138, 139, 158, 160, 161, 162, 163, 183, 213
10, 11, 12, 13, 24, 25, 36, 37, 38, 39, 208
13, 14, 23, 24, 25, 36, 208
170, 171, 172, 173, 174, 176, 177, 178, 179, 180, 181, 182
31, 32, 74, 75, 76, 98, 206, 216, 217, 219
82, 83, 84, 85, 86, 87, 90, 92, 130, 131, 210, 211, 222
77, 78, 79, 80, 81, 95, 96, 97, 98, 99, 209, 217
126, 127, 128, 129, 130, 132, 164, 165, 166, 222
2, 49, 50, 51, 52, 55, 56, 57, 58, 59, 133, 207
80, 81, 93, 94, 95, 96, 97, 98, 99, 209, 221
111, 121, 122, 123, 124, 169, 170, 171
30, 31, 32, 75, 76, 77, 78, 98, 202, 206, 216, 217, 219
80, 81, 93, 94, 95, 96, 97, 209, 221
2, 47, 55, 56, 57, 58, 59, 60, 61, 207
117, 118, 119, 120, 184, 185, 186, 187
63, 64, 65, 66, 67, 68, 69
174, 176, 177, 178, 179, 180
60, 61, 62, 112, 113, 114, 115, 116, 117, 118, 119, 186, 187, 223
84, 87, 88, 89, 90, 91, 92, 210
50, 52, 53, 54, 55, 56
1, 3, 4, 197, 198, 200
82, 83, 84, 85, 86, 90, 91, 92, 93, 94, 210, 221
143, 144, 146, 152, 153, 154, 155, 156, 157, 160
126, 127, 128, 164, 165, 166, 167
74, 75, 76, 96, 97, 98, 99, 100, 216, 219
136, 137, 138, 139, 140, 141, 158, 159, 160, 161, 162, 163, 183
143, 144, 145, 146, 147, 157, 201
7, 41, 42, 43, 44, 45, 46, 194, 195, 218
113, 114, 115, 116, 117, 118, 119, 120, 185, 186, 187, 188, 223
27, 47, 188, 189, 190, 191, 205, 225
2, 55, 56, 57, 58, 59, 60, 61
61, 62, 63, 64, 65, 66, 110, 111, 112, 113, 114
65, 107, 108, 109, 110, 111, 112, 123, 124
132, 134, 135, 158, 164, 183, 213, 215
13, 23, 24, 25, 26, 36, 37, 208
85, 86, 87, 128, 129, 130, 131, 132, 210, 211, 222
25, 26, 29, 32, 33, 34, 35, 36, 37, 38, 202, 204, 208
105, 106, 107, 108, 109, 110, 124, 125, 126
126, 127, 150, 151, 165, 166, 167, 212, 214
28, 29, 30, 31, 32, 33, 34, 35, 77, 202, 204, 206, 216, 217, 219
1, 3, 5, 6, 7, 8, 9, 10, 40, 41, 42, 43, 200
53, 54, 68, 69, 70, 71, 72, 73, 74, 75, 76, 100, 102
128, 129, 132, 134, 164, 165, 166, 213, 215
144, 145, 146, 147, 148, 149, 151, 152, 153, 154, 155, 156, 157
171, 172, 173, 174, 176, 177, 178, 179, 180, 181, 182, 184
125, 126, 150, 151, 167, 168, 169, 212, 214
123, 124, 125, 168, 169, 170, 171, 172, 212
134, 135, 136, 137, 158, 160, 161, 162, 163, 164, 165, 183, 213, 215
11, 12, 13, 14, 15, 16, 17, 18, 19, 20, 21, 22, 23, 203
1, 3, 4, 5, 197, 198, 200
113, 115, 118, 119, 120, 121, 175, 184, 185, 186, 187, 223
140, 141, 142, 156, 158, 159, 160, 161, 162, 163
45, 46, 48, 191, 192, 193, 194, 196, 199, 218, 224
11, 12, 13, 14, 15, 16, 17, 18, 19, 20, 21, 22, 23, 24, 203
122, 123, 169, 170, 171, 172, 173, 174, 181, 182, 184
4, 6, 43, 44, 46, 194, 195, 197, 198, 218
86, 87, 128, 129, 130, 131, 132, 210, 211, 222
82, 83, 84, 85, 86, 87, 90, 91, 92, 131, 210, 211
143, 144, 145, 153, 154, 155, 156, 157, 159, 160, 201
78, 79, 80, 81, 93, 94, 95, 96, 97, 99, 209, 221
65, 105, 106, 107, 108, 109, 110, 125, 220
49, 50, 51, 52, 53, 55, 56, 57, 199, 224
138, 139, 140, 141, 142, 143, 159, 201
51, 52, 53, 54, 55, 56, 57, 58, 59
70, 71, 72, 73, 74, 75, 98, 99, 100, 101, 102
15, 16, 17, 18, 19, 20, 21, 22, 203
24, 25, 26, 28, 33, 34, 35, 204, 208
126, 127, 128, 165, 166, 167
138, 139, 140, 141, 142, 143, 159, 160, 161, 162, 201
69, 70, 71, 72, 73, 74, 75, 76, 100, 101, 102
48, 49, 50, 133, 190, 191, 192, 196, 199, 205, 224
25, 26, 28, 29, 34, 35, 204
67, 88, 89, 103, 104, 105, 106, 107, 108, 109, 220
65, 105, 106, 107, 108, 109, 110, 125
5, 6, 7, 8, 41, 42, 43, 44, 46, 194, 195, 197
1, 3, 4, 5, 6, 197, 198, 200
125, 126, 127, 166, 167, 212, 214
127, 128, 129, 130, 131, 132, 164, 165, 211, 215, 222
14, 15, 16, 17, 18, 19, 20, 21, 22, 203
174, 176, 177, 178, 179, 180, 181
1, 3, 4, 5, 6, 195, 197, 198, 200
148, 149, 150, 151, 152, 167, 168, 169, 212, 214
173, 174, 176, 177, 178, 179, 180, 181
28, 29, 30, 31, 77, 78, 79, 97, 202, 204, 206, 216, 217, 219
50, 51, 52, 53, 54, 55, 56, 57, 58
1, 3, 4, 5, 198, 200
119, 120, 121, 122, 175, 184, 185, 186
45, 48, 50, 133, 191, 192, 193, 196, 199, 205, 224
1, 3, 4, 5, 6, 7, 8, 197, 198, 200
60, 61, 62, 63, 114, 115, 116, 117, 118, 187, 188, 223
144, 145, 146, 147, 148, 149, 153, 154, 155
26, 28, 29, 30, 34, 79, 204
65, 66, 67, 68, 69, 103, 104, 106, 107, 108, 109, 220
1, 3, 4, 5, 6, 7, 8, 9, 40, 41, 42, 43, 197, 198, 200
82, 83, 84, 85, 86, 131, 210
11, 12, 13, 14, 15, 16, 22, 23, 24, 36, 37, 208
8, 9, 10, 11, 38, 39, 40, 41
136, 137, 138, 139, 140, 141, 142, 159, 161, 162, 163, 183
10, 11, 12, 37, 38, 39, 40
111, 119, 120, 121, 122, 123, 170, 175, 184, 185
8, 9, 10, 38, 39, 40, 41, 42
146, 147, 148, 149, 150, 151, 152, 153, 154, 168, 212, 214
44, 45, 46, 48, 193, 194, 195, 196, 218
65, 66, 67, 103, 104, 105, 106, 107, 108, 109, 220
78, 79, 80, 81, 95, 96, 97, 209, 221
134, 135, 136, 158, 163, 183, 213, 215
25, 26, 28, 29, 32, 33, 34, 35, 36, 37, 204, 208
87, 88, 89, 90, 91, 92, 101, 103, 104, 105, 220
117, 118, 185, 186, 187, 188
43, 44, 45, 46, 193, 194, 195, 218
17, 18, 19, 20, 21, 203
53, 54, 68, 69, 70, 71, 72, 73, 74
2, 27, 47, 49, 51, 57, 58, 59, 60, 61, 188, 189, 190, 207, 225
134, 135, 136, 137, 158, 163, 183, 213
2, 27, 47, 49, 133, 188, 189, 190, 205, 207, 225
71, 72, 73, 74, 75, 76, 98, 99, 100, 216
126, 148, 149, 150, 151, 152, 166, 167, 168, 212, 214
11, 14, 15, 16, 17, 18, 19, 20, 21, 203
176, 177, 178, 179, 180
119, 120, 175, 184, 185, 186
1, 3, 4, 5, 6, 7, 197, 198, 200
138, 139, 140, 141, 142, 156, 157, 159, 160, 161, 162, 201
31, 73, 74, 75, 76, 216
27, 47, 187, 188, 189, 225
15, 17, 19, 20, 21, 22, 203
58, 59, 60, 61, 62, 63, 64, 66, 116
125, 126, 127, 150, 151, 166, 167, 168, 169, 212, 214
1, 3, 4, 5, 6, 7, 8, 9, 42, 43, 195, 197, 198, 200
79, 80, 81, 95, 209, 221
88, 89, 101, 102, 103, 104, 105, 106, 220
82, 83, 84, 85, 87, 88, 89, 90, 91, 92, 93, 94
109, 124, 125, 126, 127, 168, 169, 212, 214
93, 96, 97, 98, 99, 100, 101, 209
111, 119, 120, 121, 122, 123, 175, 184, 185, 186
12, 13, 14, 15, 16, 17, 18, 19, 20, 21, 22, 23, 203
135, 136, 137, 138, 139, 140, 141, 142, 158, 159, 160, 161, 162, 163, 183
83, 84, 87, 88, 89, 90, 91, 92, 93, 94, 101
120, 121, 122, 123, 124, 170, 171, 172, 173, 175, 182, 184
67, 88, 89, 102, 103, 104, 105, 106, 107, 108, 109, 220
64, 110, 111, 112, 113, 114, 121, 122, 123, 124, 175
14, 15, 16, 17, 19, 20, 21, 22, 23, 203
48, 133, 189, 191, 192, 193, 196, 199, 205, 224
80, 81, 82, 83, 93, 94, 95, 209, 221
136, 137, 138, 139, 140, 141, 142, 201
85, 86, 129, 130, 131, 132, 210, 211, 222
42, 43, 44, 45, 46, 48, 193, 194, 195, 218
2, 27, 47, 49, 51, 133, 189, 190, 191, 199, 205, 207, 225
143, 144, 145, 146, 147, 148, 149, 152, 153, 154, 155, 156, 157
31, 32, 33, 35, 38, 39
30, 31, 76, 77, 78, 79, 98, 202, 206, 216, 217, 219
66, 67, 68, 69, 70, 71, 72
82, 83, 84, 85, 86, 94, 221
58, 59, 60, 61, 62, 63, 116, 117, 223
30, 31, 32, 75, 76, 202, 206, 216, 217, 219
135, 137, 158, 159, 160, 161, 162, 163, 213
43, 44, 45, 46, 48, 192, 193, 194, 195, 196, 218
9, 10, 11, 37, 38, 39, 40, 41
12, 13, 14, 15, 22, 23, 24, 36, 208
